%%%mzn-stat: initTime=0.003196982
%%%mzn-stat: objective=376
%%%mzn-stat: nodes=2187
%%%mzn-stat: restarts=0
%%%mzn-stat: peakDepth=105
%%%mzn-stat: solveTime=0.065956608
%%%mzn-stat: variables=292
%%%mzn-stat: propagators=195
%%%mzn-stat: failures=878
%%%mzn-stat: propagations=59032
%%%mzn-stat: nogoods=878
%%%mzn-stat: AverageConflictSize=7.970387243735763
%%%mzn-stat: NumUnitNogoodsLearned=375
%%%mzn-stat: AverageLearnedNogoodLength=8.025056947608201
%%%mzn-stat: AverageBacktrackAmount=0
%%%mzn-stat: AverageLbd=4.635535307517085
%%%mzn-stat-end
maxleg = 376;
succ = array1d(1..20,[11, 5, 15, 3, 18, 1, 14, 19, 16, 7, 8, 6, 20, 2, 17, 10, 13, 12, 4, 9]);
% time elapsed: 1.60 s
----------
==========
% time elapsed: 1.60 s
%%%mzn-stat: initTime=0.003196982
%%%mzn-stat: objective=376
%%%mzn-stat: nodes=2187
%%%mzn-stat: restarts=0
%%%mzn-stat: peakDepth=105
%%%mzn-stat: solveTime=0.065959321
%%%mzn-stat: variables=292
%%%mzn-stat: propagators=195
%%%mzn-stat: failures=878
%%%mzn-stat: propagations=59032
%%%mzn-stat: nogoods=878
%%%mzn-stat: AverageConflictSize=7.970387243735763
%%%mzn-stat: NumUnitNogoodsLearned=375
%%%mzn-stat: AverageLearnedNogoodLength=8.025056947608201
%%%mzn-stat: AverageBacktrackAmount=0
%%%mzn-stat: AverageLbd=4.635535307517085
%%%mzn-stat-end
